n = 42;
k = 2;
roles = [
{d, m},
{d, g},
{d, g},
{d, m},
{f, d},
{d, m},
{d, g},
{d, g},
{g, m},
{m, f},
{g, m},
{d, f},
{f, m},
{g, m},
{f, m},
{f, d},
{d, g},
{f, m},
{g, m},
{g, d},
{d, g},
{m, f},
{d, f},
{g, m},
{f, g},
{m, d},
{f, g},
{d, f},
{m, d},
{f, g},
{m, f},
{m, d},
{g, d},
{f, d},
{d, g},
{g, m},
{g, f},
{d, m},
{d, m},
{m, f},
{m, d},
{d, m}
];
num_pairs = 1;
player1 = [29];
player2 = [27];
